************************************************************************
file with basedata            : EXPL4.BAS
initial value random generator: 797486062
************************************************************************
projects                      :  1
jobs (incl. supersource/sink ):  16
horizon                       :  67
RESOURCES
  - renewable                 :  2   R
  - nonrenewable              :  2   N
  - doubly constrained        :  0   D
************************************************************************
PROJECT INFORMATION:
pronr.  #jobs rel.date duedate tardcost  MPM-Time
    1     14      0       37       11       37
************************************************************************
PRECEDENCE RELATIONS:
jobnr.    #modes  #successors   successors
   1        1          1           2
   2        1          3           3   5   6
   3        1          3           4   7  12
   4        1          1          10
   5        1          2           7   9
   6        1          3           8  10  11
   7        1          1          11
   8        1          1          12
   9        1          1          13
  10        1          1          15
  11        1          2          13  14
  12        1          2          13  14
  13        1          1          15
  14        1          1          15
  15        1          1          16
  16        1          0        
************************************************************************
REQUESTS/DURATIONS:
jobnr. mode duration  R 1  R 2  N 1  N 2
------------------------------------------------------------------------
  1      1     0       0    0    0    0
  2      1     7       9    0    9    9
  3      1     8       0    6    5    9
  4      1     1       5    0    3    4
  5      1     3       0    7    6    2
  6      1     3       0    4    2   10
  7      1     3       6    0    3    6
  8      1     8       0    4    8    5
  9      1     9       8    0    3    8
 10      1     2       3    0    9    5
 11      1     8       0    4    3    9
 12      1     2       4    0    1    6
 13      1     9       3    0    8    5
 14      1     2       5    0    2    6
 15      1     2       0    6    7    4
 16      1     0       0    0    0    0
************************************************************************
RESOURCEAVAILABILITIES:
  R 1  R 2  N 1  N 2
   11    9   69   88
************************************************************************
OVERCAPACITY COSTS:
1->0.5
2->0.5
MAX OVERCAPACITY:
1->5
2->4
